(set-logic LIA)

(synth-fun isButtonPressed ( (__iv__input_0_ Int) (__iv__input_1_ Int) (__iv__input_2_ Int) (__iv__input_3_ Int) (__iv__input_4_ Int) (__iv__input_5_ Int) (__iv__input_6_ Int) (__iv__input_7_ Int) (__iv__input_8_ Int) (__iv__input_9_ Int) (__iv__input_10_ Int) (__iv__input_11_ Int)) Int
((Start Int (ntInt))
(ntInt Int (
	0 1 2 3 4 -1 5 
	__iv__input_0_ __iv__input_1_ __iv__input_2_ __iv__input_3_ __iv__input_4_ __iv__input_5_ __iv__input_6_ __iv__input_7_ __iv__input_8_ __iv__input_9_ __iv__input_10_ __iv__input_11_ 
	(* ntInt ntInt)
	(ite ntBool ntInt ntInt)
	(+ ntInt ntInt)
	(- ntInt ntInt)
))
(ntBool Bool (
	(not ntBool)
	(or ntBool ntBool)
	(and ntBool ntBool)
	(< ntInt ntInt)
	(= ntInt ntInt)
	(>= ntInt ntInt)
))
))

(constraint (=(isButtonPressed 0 0 0 0 1 0 0 0 0 1 1 0) 1))
(constraint (=(isButtonPressed 0 0 0 0 1 0 0 0 1 1 1 1) 1))
(constraint (=(isButtonPressed 0 1 1 0 1 0 0 0 0 1 0 0) 1))
(constraint (=(isButtonPressed 1 0 0 0 0 0 0 0 0 0 0 0) 1))
(constraint (=(isButtonPressed 1 0 1 1 1 0 0 0 1 1 0 1) 1))
(constraint (=(isButtonPressed 1 0 0 0 0 1 0 0 0 0 1 0) 1))
(constraint (=(isButtonPressed 1 0 1 1 1 1 0 0 0 1 1 0) 1))
(constraint (=(isButtonPressed 0 0 0 0 0 0 0 1 0 0 0 0) 1))
(constraint (=(isButtonPressed 1 1 0 0 0 0 0 1 1 0 0 1) 1))
(constraint (=(isButtonPressed 0 0 0 0 0 0 0 0 0 0 0 0) 0))
(constraint (=(isButtonPressed 0 0 0 0 0 0 0 1 0 0 1 0) 1))
(constraint (=(isButtonPressed 0 0 0 0 0 0 1 0 0 0 0 0) 1))
(constraint (=(isButtonPressed 1 1 0 0 0 1 1 1 0 1 0 0) 1))
(constraint (=(isButtonPressed 1 0 0 0 1 0 0 0 0 0 0 0) 1))
(constraint (=(isButtonPressed 0 0 1 0 1 0 0 0 0 1 1 0) 1))
(constraint (=(isButtonPressed 0 0 1 1 1 0 1 1 0 1 1 0) 1))
(constraint (=(isButtonPressed 0 0 1 0 0 0 0 0 0 0 0 0) 1))
(constraint (=(isButtonPressed 1 0 1 0 0 0 0 0 0 0 0 0) 1))
(constraint (=(isButtonPressed 1 0 1 0 0 0 0 0 0 0 1 0) 1))
(constraint (=(isButtonPressed 0 0 0 0 0 0 0 0 1 0 0 0) 1))
(constraint (=(isButtonPressed 1 0 1 0 1 0 1 0 1 0 0 1) 1))
(constraint (=(isButtonPressed 0 1 1 0 0 0 1 0 0 0 0 0) 1))
(constraint (=(isButtonPressed 0 0 0 0 0 0 0 0 0 1 0 0) 1))
(constraint (=(isButtonPressed 0 0 0 0 0 0 0 0 0 0 0 1) 1))
(constraint (=(isButtonPressed 1 0 1 0 0 0 1 0 1 0 1 1) 1))
(constraint (=(isButtonPressed 1 0 1 0 0 0 1 0 1 1 1 1) 1))
(constraint (=(isButtonPressed 1 0 1 1 0 0 1 0 1 1 1 1) 1))
(constraint (=(isButtonPressed 0 1 1 0 1 0 0 0 1 0 0 1) 1))
(constraint (=(isButtonPressed 0 0 0 1 0 0 0 0 0 0 0 0) 1))
(constraint (=(isButtonPressed 0 0 1 1 1 0 0 0 0 1 0 0) 1))
(constraint (=(isButtonPressed 0 0 1 1 1 0 0 1 0 1 0 0) 1))
(constraint (=(isButtonPressed 0 1 1 1 1 1 0 1 1 0 1 1) 1))
(constraint (=(isButtonPressed 1 0 1 0 1 1 0 0 1 0 1 1) 1))
(constraint (=(isButtonPressed 0 0 0 0 0 1 0 0 0 0 0 0) 1))
(constraint (=(isButtonPressed 0 0 0 0 0 0 0 0 0 0 1 0) 1))
(constraint (=(isButtonPressed 0 1 1 0 1 1 1 0 1 0 1 1) 1))
(constraint (=(isButtonPressed 1 1 1 0 1 1 1 0 1 0 1 1) 1))
(constraint (=(isButtonPressed 1 1 1 1 1 1 1 0 1 1 1 1) 1))
(constraint (=(isButtonPressed 1 1 1 1 1 1 1 1 1 1 1 1) 1))
(constraint (=(isButtonPressed -33 -24 -43 -2 -64 -2 -5 -15 -2 1 0 0) 1))
(constraint (=(isButtonPressed -2 -32 43 0 37 -6 -21 0 0 26 0 -5) 0))
(constraint (=(isButtonPressed -8 30 -51 -15 -61 0 0 -51 9 -7 -15 -16) 0))
(constraint (=(isButtonPressed 13 -2 26 16 0 5 17 19 -8 25 2 46) 0))
(constraint (=(isButtonPressed 12 -35 -25 -2 -14 -8 45 25 24 -45 -44 -58) 0))
(constraint (=(isButtonPressed -2 -2 -13 -2 -33 -2 -2 -2 -2 1 0 0) 1))
(constraint (=(isButtonPressed -12 -83 -8 -31 1 89 -32 -37 45 -66 2 21) 1))
(constraint (=(isButtonPressed 22 -2 -8 -28 -76 -79 -73 0 9 4 -1 0) 0))
(constraint (=(isButtonPressed 12 -2 6 -2 7 -14 0 -17 0 0 -19 0) 0))
(constraint (=(isButtonPressed 1 0 27 0 0 0 -3 0 0 0 -15 0) 1))
(constraint (=(isButtonPressed -2 -2 -2 13 -2 -9 -2 39 0 0 0 0) 0))
(constraint (=(isButtonPressed 0 0 -24 0 25 0 0 -10 -22 17 0 0) 0))
(constraint (=(isButtonPressed 18 -77 31 38 -51 48 -4 31 12 49 19 1) 1))
(constraint (=(isButtonPressed 0 0 1 -23 -13 7 0 0 24 0 0 0) 1))
(constraint (=(isButtonPressed -2 14 -2 -37 14 14 -2 -2 -2 32 -2 -14) 0))
(constraint (=(isButtonPressed -61 43 16 -11 57 102 -65 27 1 -87 -21 -55) 1))
(constraint (=(isButtonPressed -2 -2 27 6 -2 -6 -2 -2 -2 -6 -24 -37) 0))
(constraint (=(isButtonPressed -73 -37 1 10 36 88 -76 -44 -3 -56 6 -48) 1))
(constraint (=(isButtonPressed 11 14 -2 1 0 11 -16 0 19 0 29 2) 1))
(constraint (=(isButtonPressed -2 -2 -2 -2 -23 15 -26 -2 -2 1 4 42) 1))
(constraint (=(isButtonPressed -3 0 27 16 0 0 0 0 33 0 7 0) 0))
(constraint (=(isButtonPressed -19 1 1 6 0 0 -3 0 0 0 -22 0) 1))
(constraint (=(isButtonPressed -2 5 -8 -47 -25 -2 -2 1 -24 -26 -24 9) 1))
(constraint (=(isButtonPressed 22 35 -27 -8 -2 -31 27 1 86 0 -13 -19) 1))
(check-synth)